&inputph
 prefix = "inse",
 epsil = .false.,
 zeu = .false.,
 zue = .true.,
 fildyn = "dyn",
 fildrho = "drho",
 tr2_ph = 1.0d-21,
!ldisp = .true.
!qplot = .true.
/
0.0  0.0  0.0
